[VALIDATOR STDOUT]
Type-checking pick-package
...action passes type checking.
Type-checking drop-package
...action passes type checking.
Type-checking move
...action passes type checking.
Checking plan: /home/jfan5/Safety-gen/runs/benchmark/optic/delivery_20260215_225923/delivery/optic_results/delivery_size12_packages1_seed12001.plan
Plan to validate:

Plan size: 113
1:
(move t1 c_10_4 c_10_3)
 
2:
(move t1 c_10_3 c_9_3)
 
3:
(move t1 c_9_3 c_9_4)
 
4:
(move t1 c_9_4 c_9_5)
 
5:
(move t1 c_9_5 c_9_6)
 
6:
(move t1 c_9_6 c_8_6)
 
7:
(move t1 c_8_6 c_8_7)
 
8:
(move t1 c_8_7 c_8_8)
 
9:
(move t1 c_8_8 c_8_9)
 
10:
(move t1 c_8_9 c_9_9)
 
11:
(pick-package t1 p4 c_9_9)
 
12:
(move t1 c_9_9 c_8_9)
 
13:
(move t1 c_8_9 c_7_9)
 
14:
(move t1 c_7_9 c_6_9)
 
15:
(move t1 c_6_9 c_5_9)
 
16:
(move t1 c_5_9 c_5_8)
 
17:
(move t1 c_5_8 c_5_7)
 
18:
(move t1 c_5_7 c_5_6)
 
19:
(drop-package t1 p4 c_5_6)
 
20:
(move t1 c_5_6 c_4_6)
 
21:
(move t1 c_4_6 c_3_6)
 
22:
(move t1 c_3_6 c_3_5)
 
23:
(move t1 c_3_5 c_3_4)
 
24:
(move t1 c_3_4 c_3_3)
 
25:
(move t1 c_3_3 c_3_2)
 
26:
(move t1 c_3_2 c_3_1)
 
27:
(pick-package t1 p5 c_3_1)
 
28:
(move t1 c_3_1 c_3_2)
 
29:
(move t1 c_3_2 c_3_3)
 
30:
(move t1 c_3_3 c_3_4)
 
31:
(move t1 c_3_4 c_3_5)
 
32:
(move t1 c_3_5 c_3_6)
 
33:
(move t1 c_3_6 c_4_6)
 
34:
(move t1 c_4_6 c_5_6)
 
35:
(drop-package t1 p5 c_5_6)
 
36:
(move t1 c_5_6 c_4_6)
 
37:
(move t1 c_4_6 c_3_6)
 
38:
(move t1 c_3_6 c_3_7)
 
39:
(move t1 c_3_7 c_3_8)
 
40:
(move t1 c_3_8 c_3_9)
 
41:
(move t1 c_3_9 c_3_10)
 
42:
(pick-package t1 p6 c_3_10)
 
43:
(move t1 c_3_10 c_4_10)
 
44:
(move t1 c_4_10 c_5_10)
 
45:
(move t1 c_5_10 c_5_9)
 
46:
(move t1 c_5_9 c_5_8)
 
47:
(move t1 c_5_8 c_5_7)
 
48:
(move t1 c_5_7 c_5_6)
 
49:
(drop-package t1 p6 c_5_6)
 
50:
(move t1 c_5_6 c_5_7)
 
51:
(move t1 c_5_7 c_5_8)
 
52:
(move t1 c_5_8 c_5_9)
 
53:
(move t1 c_5_9 c_5_10)
 
54:
(move t1 c_5_10 c_6_10)
 
55:
(move t1 c_6_10 c_7_10)
 
56:
(move t1 c_7_10 c_8_10)
 
57:
(pick-package t1 p1 c_8_10)
 
58:
(move t1 c_8_10 c_7_10)
 
59:
(move t1 c_7_10 c_6_10)
 
60:
(move t1 c_6_10 c_5_10)
 
61:
(move t1 c_5_10 c_5_9)
 
62:
(move t1 c_5_9 c_5_8)
 
63:
(move t1 c_5_8 c_5_7)
 
64:
(move t1 c_5_7 c_5_6)
 
65:
(drop-package t1 p1 c_5_6)
 
66:
(move t1 c_5_6 c_4_6)
 
67:
(move t1 c_4_6 c_3_6)
 
68:
(move t1 c_3_6 c_2_6)
 
69:
(move t1 c_2_6 c_1_6)
 
70:
(move t1 c_1_6 c_0_6)
 
71:
(move t1 c_0_6 c_0_5)
 
72:
(move t1 c_0_5 c_0_4)
 
73:
(move t1 c_0_4 c_0_3)
 
74:
(move t1 c_0_3 c_0_2)
 
75:
(move t1 c_0_2 c_0_1)
 
76:
(move t1 c_0_1 c_0_0)
 
77:
(pick-package t1 p2 c_0_0)
 
78:
(move t1 c_0_0 c_0_1)
 
79:
(move t1 c_0_1 c_0_2)
 
80:
(move t1 c_0_2 c_0_3)
 
81:
(move t1 c_0_3 c_0_4)
 
82:
(drop-package t1 p2 c_0_4)
 
83:
(move t1 c_0_4 c_0_3)
 
84:
(pick-package t1 p3 c_0_3)
 
85:
(move t1 c_0_3 c_0_4)
 
86:
(move t1 c_0_4 c_0_5)
 
87:
(drop-package t1 p3 c_0_5)
 
88:
(move t1 c_0_5 c_0_4)
 
89:
(pick-package t1 p2 c_0_4)
 
90:
(move t1 c_0_4 c_0_5)
 
91:
(move t1 c_0_5 c_0_6)
 
92:
(drop-package t1 p2 c_0_6)
 
93:
(move t1 c_0_6 c_0_5)
 
94:
(pick-package t1 p3 c_0_5)
 
95:
(move t1 c_0_5 c_0_6)
 
96:
(move t1 c_0_6 c_1_6)
 
97:
(move t1 c_1_6 c_2_6)
 
98:
(move t1 c_2_6 c_3_6)
 
99:
(move t1 c_3_6 c_4_6)
 
100:
(move t1 c_4_6 c_5_6)
 
101:
(drop-package t1 p3 c_5_6)
 
102:
(move t1 c_5_6 c_4_6)
 
103:
(move t1 c_4_6 c_3_6)
 
104:
(move t1 c_3_6 c_2_6)
 
105:
(move t1 c_2_6 c_1_6)
 
106:
(move t1 c_1_6 c_0_6)
 
107:
(pick-package t1 p2 c_0_6)
 
108:
(move t1 c_0_6 c_1_6)
 
109:
(move t1 c_1_6 c_2_6)
 
110:
(move t1 c_2_6 c_3_6)
 
111:
(move t1 c_3_6 c_4_6)
 
112:
(move t1 c_4_6 c_5_6)
 
113:
(drop-package t1 p2 c_5_6)
 

Plan Validation details
-----------------------

Checking next happening (time 1)
Deleting (at t1 c_10_4)
Adding (at t1 c_10_3)

Checking next happening (time 2)
Deleting (at t1 c_10_3)
Adding (at t1 c_9_3)

Checking next happening (time 3)
Deleting (at t1 c_9_3)
Adding (at t1 c_9_4)

Checking next happening (time 4)
Deleting (at t1 c_9_4)
Adding (at t1 c_9_5)

Checking next happening (time 5)
Deleting (at t1 c_9_5)
Adding (at t1 c_9_6)

Checking next happening (time 6)
Deleting (at t1 c_9_6)
Adding (at t1 c_8_6)

Checking next happening (time 7)
Deleting (at t1 c_8_6)
Adding (at t1 c_8_7)

Checking next happening (time 8)
Deleting (at t1 c_8_7)
Adding (at t1 c_8_8)

Checking next happening (time 9)
Deleting (at t1 c_8_8)
Adding (at t1 c_8_9)

Checking next happening (time 10)
Deleting (at t1 c_8_9)
Adding (at t1 c_9_9)

Checking next happening (time 11)
Deleting (at p4 c_9_9)
Deleting (empty t1)
Adding (carrying t1 p4)

Checking next happening (time 12)
Deleting (at t1 c_9_9)
Adding (at t1 c_8_9)

Checking next happening (time 13)
Deleting (at t1 c_8_9)
Adding (at t1 c_7_9)

Checking next happening (time 14)
Deleting (at t1 c_7_9)
Adding (at t1 c_6_9)

Checking next happening (time 15)
Deleting (at t1 c_6_9)
Adding (at t1 c_5_9)

Checking next happening (time 16)
Deleting (at t1 c_5_9)
Adding (at t1 c_5_8)

Checking next happening (time 17)
Deleting (at t1 c_5_8)
Adding (at t1 c_5_7)

Checking next happening (time 18)
Deleting (at t1 c_5_7)
Adding (at t1 c_5_6)

Checking next happening (time 19)
Deleting (carrying t1 p4)
Adding (empty t1)
Adding (at p4 c_5_6)

Checking next happening (time 20)
Deleting (at t1 c_5_6)
Adding (at t1 c_4_6)

Checking next happening (time 21)
Deleting (at t1 c_4_6)
Adding (at t1 c_3_6)

Checking next happening (time 22)
Deleting (at t1 c_3_6)
Adding (at t1 c_3_5)

Checking next happening (time 23)
Deleting (at t1 c_3_5)
Adding (at t1 c_3_4)

Checking next happening (time 24)
Deleting (at t1 c_3_4)
Adding (at t1 c_3_3)

Checking next happening (time 25)
Deleting (at t1 c_3_3)
Adding (at t1 c_3_2)

Checking next happening (time 26)
Deleting (at t1 c_3_2)
Adding (at t1 c_3_1)

Checking next happening (time 27)
Deleting (at p5 c_3_1)
Deleting (empty t1)
Adding (carrying t1 p5)

Checking next happening (time 28)
Deleting (at t1 c_3_1)
Adding (at t1 c_3_2)

Checking next happening (time 29)
Deleting (at t1 c_3_2)
Adding (at t1 c_3_3)

Checking next happening (time 30)
Deleting (at t1 c_3_3)
Adding (at t1 c_3_4)

Checking next happening (time 31)
Deleting (at t1 c_3_4)
Adding (at t1 c_3_5)

Checking next happening (time 32)
Deleting (at t1 c_3_5)
Adding (at t1 c_3_6)

Checking next happening (time 33)
Deleting (at t1 c_3_6)
Adding (at t1 c_4_6)

Checking next happening (time 34)
Deleting (at t1 c_4_6)
Adding (at t1 c_5_6)

Checking next happening (time 35)
Deleting (carrying t1 p5)
Adding (empty t1)
Adding (at p5 c_5_6)

Checking next happening (time 36)
Deleting (at t1 c_5_6)
Adding (at t1 c_4_6)

Checking next happening (time 37)
Deleting (at t1 c_4_6)
Adding (at t1 c_3_6)

Checking next happening (time 38)
Deleting (at t1 c_3_6)
Adding (at t1 c_3_7)

Checking next happening (time 39)
Deleting (at t1 c_3_7)
Adding (at t1 c_3_8)

Checking next happening (time 40)
Deleting (at t1 c_3_8)
Adding (at t1 c_3_9)

Checking next happening (time 41)
Deleting (at t1 c_3_9)
Adding (at t1 c_3_10)

Checking next happening (time 42)
Deleting (at p6 c_3_10)
Deleting (empty t1)
Adding (carrying t1 p6)

Checking next happening (time 43)
Deleting (at t1 c_3_10)
Adding (at t1 c_4_10)

Checking next happening (time 44)
Deleting (at t1 c_4_10)
Adding (at t1 c_5_10)

Checking next happening (time 45)
Deleting (at t1 c_5_10)
Adding (at t1 c_5_9)

Checking next happening (time 46)
Deleting (at t1 c_5_9)
Adding (at t1 c_5_8)

Checking next happening (time 47)
Deleting (at t1 c_5_8)
Adding (at t1 c_5_7)

Checking next happening (time 48)
Deleting (at t1 c_5_7)
Adding (at t1 c_5_6)

Checking next happening (time 49)
Deleting (carrying t1 p6)
Adding (empty t1)
Adding (at p6 c_5_6)

Checking next happening (time 50)
Deleting (at t1 c_5_6)
Adding (at t1 c_5_7)

Checking next happening (time 51)
Deleting (at t1 c_5_7)
Adding (at t1 c_5_8)

Checking next happening (time 52)
Deleting (at t1 c_5_8)
Adding (at t1 c_5_9)

Checking next happening (time 53)
Deleting (at t1 c_5_9)
Adding (at t1 c_5_10)

Checking next happening (time 54)
Deleting (at t1 c_5_10)
Adding (at t1 c_6_10)

Checking next happening (time 55)
Deleting (at t1 c_6_10)
Adding (at t1 c_7_10)

Checking next happening (time 56)
Deleting (at t1 c_7_10)
Adding (at t1 c_8_10)

Checking next happening (time 57)
Deleting (at p1 c_8_10)
Deleting (empty t1)
Adding (carrying t1 p1)

Checking next happening (time 58)
Deleting (at t1 c_8_10)
Adding (at t1 c_7_10)

Checking next happening (time 59)
Deleting (at t1 c_7_10)
Adding (at t1 c_6_10)

Checking next happening (time 60)
Deleting (at t1 c_6_10)
Adding (at t1 c_5_10)

Checking next happening (time 61)
Deleting (at t1 c_5_10)
Adding (at t1 c_5_9)

Checking next happening (time 62)
Deleting (at t1 c_5_9)
Adding (at t1 c_5_8)

Checking next happening (time 63)
Deleting (at t1 c_5_8)
Adding (at t1 c_5_7)

Checking next happening (time 64)
Deleting (at t1 c_5_7)
Adding (at t1 c_5_6)

Checking next happening (time 65)
Deleting (carrying t1 p1)
Adding (empty t1)
Adding (at p1 c_5_6)

Checking next happening (time 66)
Deleting (at t1 c_5_6)
Adding (at t1 c_4_6)

Checking next happening (time 67)
Deleting (at t1 c_4_6)
Adding (at t1 c_3_6)

Checking next happening (time 68)
Deleting (at t1 c_3_6)
Adding (at t1 c_2_6)

Checking next happening (time 69)
Deleting (at t1 c_2_6)
Adding (at t1 c_1_6)

Checking next happening (time 70)
Deleting (at t1 c_1_6)
Adding (at t1 c_0_6)

Checking next happening (time 71)
Deleting (at t1 c_0_6)
Adding (at t1 c_0_5)

Checking next happening (time 72)
Deleting (at t1 c_0_5)
Adding (at t1 c_0_4)

Checking next happening (time 73)
Deleting (at t1 c_0_4)
Adding (at t1 c_0_3)

Checking next happening (time 74)
Deleting (at t1 c_0_3)
Adding (at t1 c_0_2)

Checking next happening (time 75)
Deleting (at t1 c_0_2)
Adding (at t1 c_0_1)

Checking next happening (time 76)
Deleting (at t1 c_0_1)
Adding (at t1 c_0_0)

Checking next happening (time 77)
Deleting (at p2 c_0_0)
Deleting (empty t1)
Adding (carrying t1 p2)

Checking next happening (time 78)
Deleting (at t1 c_0_0)
Adding (at t1 c_0_1)

Checking next happening (time 79)
Deleting (at t1 c_0_1)
Adding (at t1 c_0_2)

Checking next happening (time 80)
Deleting (at t1 c_0_2)
Adding (at t1 c_0_3)

Checking next happening (time 81)
Deleting (at t1 c_0_3)
Adding (at t1 c_0_4)

Checking next happening (time 82)
Deleting (carrying t1 p2)
Adding (empty t1)
Adding (at p2 c_0_4)

Checking next happening (time 83)
Deleting (at t1 c_0_4)
Adding (at t1 c_0_3)

Checking next happening (time 84)
Deleting (at p3 c_0_3)
Deleting (empty t1)
Adding (carrying t1 p3)

Checking next happening (time 85)
Deleting (at t1 c_0_3)
Adding (at t1 c_0_4)

Checking next happening (time 86)
Deleting (at t1 c_0_4)
Adding (at t1 c_0_5)

Checking next happening (time 87)
Deleting (carrying t1 p3)
Adding (empty t1)
Adding (at p3 c_0_5)

Checking next happening (time 88)
Deleting (at t1 c_0_5)
Adding (at t1 c_0_4)

Checking next happening (time 89)
Deleting (at p2 c_0_4)
Deleting (empty t1)
Adding (carrying t1 p2)

Checking next happening (time 90)
Deleting (at t1 c_0_4)
Adding (at t1 c_0_5)

Checking next happening (time 91)
Deleting (at t1 c_0_5)
Adding (at t1 c_0_6)

Checking next happening (time 92)
Deleting (carrying t1 p2)
Adding (empty t1)
Adding (at p2 c_0_6)

Checking next happening (time 93)
Deleting (at t1 c_0_6)
Adding (at t1 c_0_5)

Checking next happening (time 94)
Deleting (at p3 c_0_5)
Deleting (empty t1)
Adding (carrying t1 p3)

Checking next happening (time 95)
Deleting (at t1 c_0_5)
Adding (at t1 c_0_6)

Checking next happening (time 96)
Deleting (at t1 c_0_6)
Adding (at t1 c_1_6)

Checking next happening (time 97)
Deleting (at t1 c_1_6)
Adding (at t1 c_2_6)

Checking next happening (time 98)
Deleting (at t1 c_2_6)
Adding (at t1 c_3_6)

Checking next happening (time 99)
Deleting (at t1 c_3_6)
Adding (at t1 c_4_6)

Checking next happening (time 100)
Deleting (at t1 c_4_6)
Adding (at t1 c_5_6)

Checking next happening (time 101)
Deleting (carrying t1 p3)
Adding (empty t1)
Adding (at p3 c_5_6)

Checking next happening (time 102)
Deleting (at t1 c_5_6)
Adding (at t1 c_4_6)

Checking next happening (time 103)
Deleting (at t1 c_4_6)
Adding (at t1 c_3_6)

Checking next happening (time 104)
Deleting (at t1 c_3_6)
Adding (at t1 c_2_6)

Checking next happening (time 105)
Deleting (at t1 c_2_6)
Adding (at t1 c_1_6)

Checking next happening (time 106)
Deleting (at t1 c_1_6)
Adding (at t1 c_0_6)

Checking next happening (time 107)
Deleting (at p2 c_0_6)
Deleting (empty t1)
Adding (carrying t1 p2)

Checking next happening (time 108)
Deleting (at t1 c_0_6)
Adding (at t1 c_1_6)

Checking next happening (time 109)
Deleting (at t1 c_1_6)
Adding (at t1 c_2_6)

Checking next happening (time 110)
Deleting (at t1 c_2_6)
Adding (at t1 c_3_6)

Checking next happening (time 111)
Deleting (at t1 c_3_6)
Adding (at t1 c_4_6)

Checking next happening (time 112)
Deleting (at t1 c_4_6)
Adding (at t1 c_5_6)

Checking next happening (time 113)
Deleting (carrying t1 p2)
Adding (empty t1)
Adding (at p2 c_5_6)
Plan executed successfully - checking goal
Plan valid
Final value: 113 

Successful plans:
Value: 113
 /home/jfan5/Safety-gen/runs/benchmark/optic/delivery_20260215_225923/delivery/optic_results/delivery_size12_packages1_seed12001.plan 113
